p cnf 284 1212
-2 14 3 -23 -31 0
-41 -50 5 22 -44 0
21 -2 34 -9 -46 0
47 -29 38 -5 39 0
31 1 -46 -35 -4 0
-4 50 -33 -5 44 0
-29 2 28 -7 -18 0
29 2 -41 39 -33 0
30 -32 -23 -3 -37 0
10 3 -21 -12 -47 0
36 4 -48 18 50 0
49 24 18 -19 11 0
35 -1 -17 -19 -14 0
-3 -18 -6 2 26 0
12 -38 -25 -5 -44 0
-49 -47 -23 46 -25 0
-15 17 -6 37 -18 0
28 -46 -18 29 20 0
34 -3 31 -5 10 0
-43 -46 39 -34 47 0
-28 -2 -48 -47 50 0
-19 38 -34 17 13 0
-28 18 14 -42 12 0
14 -39 5 -30 -50 0
-16 6 -31 -38 -14 0
-22 46 -36 -30 5 0
-10 -39 15 -23 40 0
44 -16 43 13 -15 0
-16 -10 -27 -14 -33 0
-30 -21 44 35 -12 0
-28 -19 -5 -24 45 0
-10 -3 11 -28 25 0
-36 9 -26 14 -5 0
25 28 7 49 -21 0
48 -43 -31 37 -41 0
15 -34 -22 38 25 0
23 -40 12 24 -36 0
26 18 37 25 47 0
-12 -31 41 40 -33 0
14 22 19 33 -44 0
6 33 35 -16 -13 0
-38 33 -48 2 8 0
-18 -8 -4 -14 -42 0
14 9 28 30 -17 0
-15 -50 13 -19 -2 0
-43 -37 50 -23 49 0
26 10 -11 15 29 0
-38 2 11 -12 45 0
25 49 -37 -30 10 0
24 42 -41 7 -46 0
-47 45 10 40 1 0
42 16 27 -8 15 0
-13 26 -20 23 -5 0
4 37 -12 -9 38 0
-16 23 42 7 -25 0
-48 -32 -11 1 43 0
-40 28 31 -14 -15 0
-21 43 -9 42 13 0
49 -14 48 50 15 0
48 31 23 -13 35 0
45 -5 -33 44 -8 0
15 -19 -17 -42 27 0
7 35 -9 -15 -18 0
31 -15 4 10 19 0
7 12 -18 44 -6 0
-32 28 22 -39 41 0
29 28 48 33 -16 0
-27 20 40 -35 42 0
-44 40 13 41 -50 0
34 49 -9 -46 2 0
38 -30 18 21 -11 0
-3 8 5 47 -18 0
-9 31 33 7 25 0
15 -49 -36 24 -45 0
-44 -50 23 5 39 0
8 -14 -27 -33 -41 0
-26 50 6 -3 45 0
-44 1 -40 48 -47 0
17 30 44 42 -10 0
-2 36 34 -31 -10 0
-19 15 -43 6 47 0
-6 -25 50 8 -33 0
-14 4 -32 -24 -46 0
31 39 -26 -35 42 0
24 1 -27 22 26 0
-21 -3 -47 37 17 0
-41 40 13 36 -10 0
-17 27 -22 -35 -23 0
48 4 -24 11 -36 0
19 9 8 -14 23 0
18 -28 -21 -23 13 0
32 -44 -20 38 -26 0
33 -10 -31 -6 7 0
-20 -13 36 -46 10 0
-1 18 -32 -44 -14 0
23 45 -9 22 40 0
-19 40 26 -1 41 0
-36 -39 -34 -23 -3 0
25 -16 24 -5 30 0
37 -47 -35 -14 -15 0
17 8 24 43 10 0
30 -23 -44 2 -17 0
-23 -41 7 47 32 0
22 -29 -34 -24 -16 0
8 7 37 45 32 0
-14 -21 48 2 24 0
26 -8 37 -33 46 0
18 -30 10 -47 31 0
-43 15 -3 45 2 0
29 47 41 -46 -33 0
-7 13 -1 -21 29 0
25 37 44 43 29 0
2 30 -1 -49 16 0
-2 42 16 25 -35 0
17 31 8 47 16 0
-23 35 -28 9 -13 0
15 -34 -10 49 -5 0
-42 40 -24 49 7 0
2 -12 -33 8 32 0
-36 -7 14 -12 40 0
25 -44 -7 -26 -32 0
-7 -48 -49 10 36 0
13 -21 34 18 2 0
3 -48 17 -8 22 0
-21 -11 28 -27 -1 0
30 -11 -39 -48 -16 0
-19 34 -33 -29 2 0
-12 -5 8 17 -13 0
-50 -38 29 15 -43 0
-49 -46 -12 -8 -50 0
1 -49 36 21 -40 0
6 -8 50 -30 -13 0
18 -44 -32 -21 41 0
7 -45 -22 29 18 0
5 21 -22 -18 -11 0
-37 47 -28 35 -32 0
-5 32 18 -7 -23 0
-29 -41 -31 -45 20 0
13 -41 12 20 -8 0
2 19 37 17 46 0
-42 40 10 -49 -31 0
-12 -37 3 42 -48 0
-22 -3 36 14 -33 0
33 11 -28 -45 -7 0
-42 -38 -4 -29 17 0
-3 -40 42 -14 -39 0
-17 12 -4 23 -14 0
-13 -38 -31 -27 8 0
34 41 26 37 -15 0
13 22 32 48 2 0
18 29 -22 -32 19 0
-35 -13 -26 -36 37 0
46 -8 -26 41 37 0
9 13 -18 10 7 0
-3 -8 -23 36 21 0
-2 -38 -35 -34 25 0
-27 35 -18 14 -2 0
-39 -12 27 -43 -25 0
-17 7 -32 10 39 0
-11 -44 43 35 -33 0
50 -2 -16 -32 7 0
-10 30 -50 49 -35 0
25 -4 -39 -6 -1 0
6 46 20 -32 21 0
1 -42 45 12 -22 0
11 40 4 -48 -34 0
13 16 15 19 21 0
42 -8 12 9 24 0
6 18 38 20 -35 0
26 18 -2 44 -39 0
15 2 14 -11 17 0
-39 14 33 -27 -32 0
-35 16 50 18 49 0
4 -49 -37 41 16 0
-46 16 2 45 30 0
36 2 -27 -24 -34 0
-46 35 -25 43 18 0
-13 24 50 -41 43 0
-32 -8 -9 28 -6 0
35 -11 40 15 -17 0
26 5 8 -23 48 0
16 -28 -22 36 8 0
-40 -41 26 19 -31 0
-24 29 -41 9 42 0
7 49 37 -30 -14 0
-7 -8 34 -10 -41 0
23 -31 -30 5 -38 0
44 -24 13 16 27 0
-49 41 16 50 45 0
28 33 -7 18 -23 0
-38 -1 37 -8 -6 0
3 42 -1 8 49 0
-49 -28 29 -48 16 0
-27 6 -48 18 36 0
-42 47 -15 44 -28 0
16 -5 47 35 46 0
-46 -31 8 -4 39 0
32 -6 -46 -15 -3 0
37 -39 -46 8 21 0
38 -16 -48 -20 -12 0
31 -43 -22 -8 11 0
5 34 25 13 44 0
-20 -48 41 -50 29 0
-39 -50 28 -5 42 0
-20 35 38 -44 -43 0
32 14 16 -1 -47 0
27 -13 4 -45 -6 0
-18 32 34 -4 26 0
-21 -48 -20 4 -45 0
47 36 -18 9 -7 0
-14 26 -50 28 -11 0
24 -28 50 42 -4 0
45 30 12 -23 39 0
36 -3 -21 -48 -6 0
-38 -4 -49 45 -14 0
-43 -14 -32 6 -44 0
-27 -49 -16 -26 38 0
28 -34 1 -31 -17 0
-48 -3 1 -46 -29 0
13 5 19 2 32 0
-30 -22 -19 -25 -37 0
44 -25 -30 37 43 0
5 9 -45 -6 -27 0
-3 24 25 12 39 0
49 32 2 -45 -33 0
-47 -19 -30 -11 -20 0
16 -38 -29 50 19 0
-3 -48 -28 -35 18 0
-48 -40 -24 16 30 0
-45 -3 -20 27 13 0
38 -45 32 29 -39 0
28 -12 32 -41 -6 0
36 35 40 44 34 0
25 32 9 -46 -45 0
-19 43 -27 47 -22 0
28 32 -46 29 -8 0
-49 -17 -37 7 30 0
21 -33 10 -4 14 0
-13 -39 45 48 -6 0
49 -34 -30 -50 -17 0
-23 47 -8 19 43 0
8 42 -14 39 -41 0
36 -39 22 -35 24 0
-6 -14 -2 -5 -40 0
5 9 24 21 38 0
-12 31 -22 15 -11 0
12 20 3 -44 -18 0
-46 -37 -34 -26 -41 0
-48 30 31 -9 15 0
15 -28 -27 46 -2 0
4 6 51 0
-4 6 -51 0
4 -6 -51 0
-4 -6 51 0
7 -8 52 0
-7 -8 -52 0
7 8 -52 0
-7 8 52 0
10 11 53 0
-10 11 -53 0
10 -11 -53 0
-10 -11 53 0
12 14 54 0
-12 14 -54 0
12 -14 -54 0
-12 -14 54 0
15 -16 55 0
-15 -16 -55 0
15 16 -55 0
-15 16 55 0
-20 -21 56 0
20 -21 -56 0
-20 21 -56 0
20 21 56 0
-23 24 57 0
23 24 -57 0
-23 -24 -57 0
23 -24 57 0
-25 -27 58 0
25 -27 -58 0
-25 27 -58 0
25 27 58 0
28 -30 59 0
-28 -30 -59 0
28 30 -59 0
-28 30 59 0
32 -33 60 0
-32 -33 -60 0
32 33 -60 0
-32 33 60 0
36 -42 61 0
-36 -42 -61 0
36 42 -61 0
-36 42 61 0
43 -44 62 0
-43 -44 -62 0
43 44 -62 0
-43 44 62 0
-45 48 63 0
45 48 -63 0
-45 -48 -63 0
45 -48 63 0
51 -52 64 0
-51 -52 -64 0
51 52 -64 0
-51 52 64 0
53 -54 65 0
-53 -54 -65 0
53 54 -65 0
-53 54 65 0
55 -56 66 0
-55 -56 -66 0
55 56 -66 0
-55 56 66 0
57 -58 67 0
-57 -58 -67 0
57 58 -67 0
-57 58 67 0
59 -60 68 0
-59 -60 -68 0
59 60 -68 0
-59 60 68 0
61 -62 69 0
-61 -62 -69 0
61 62 -69 0
-61 62 69 0
63 -64 70 0
-63 -64 -70 0
63 64 -70 0
-63 64 70 0
65 -66 71 0
-65 -66 -71 0
65 66 -71 0
-65 66 71 0
67 -68 72 0
-67 -68 -72 0
67 68 -72 0
-67 68 72 0
69 -70 73 0
-69 -70 -73 0
69 70 -73 0
-69 70 73 0
71 -72 74 0
-71 -72 -74 0
71 72 -74 0
-71 72 74 0
73 74 0
-73 -74 0
1 2 75 0
-1 2 -75 0
1 -2 -75 0
-1 -2 75 0
3 4 76 0
-3 4 -76 0
3 -4 -76 0
-3 -4 76 0
-7 -9 77 0
7 -9 -77 0
-7 9 -77 0
7 9 77 0
-10 -11 78 0
10 -11 -78 0
-10 11 -78 0
10 11 78 0
-20 23 79 0
20 23 -79 0
-20 -23 -79 0
20 -23 79 0
-25 28 80 0
25 28 -80 0
-25 -28 -80 0
25 -28 80 0
-33 38 81 0
33 38 -81 0
-33 -38 -81 0
33 -38 81 0
-41 -42 82 0
41 -42 -82 0
-41 42 -82 0
41 42 82 0
43 46 83 0
-43 46 -83 0
43 -46 -83 0
-43 -46 83 0
74 -75 84 0
-74 -75 -84 0
74 75 -84 0
-74 75 84 0
76 -77 85 0
-76 -77 -85 0
76 77 -85 0
-76 77 85 0
78 -79 86 0
-78 -79 -86 0
78 79 -86 0
-78 79 86 0
80 -81 87 0
-80 -81 -87 0
80 81 -87 0
-80 81 87 0
82 -83 88 0
-82 -83 -88 0
82 83 -88 0
-82 83 88 0
84 -85 89 0
-84 -85 -89 0
84 85 -89 0
-84 85 89 0
86 -87 90 0
-86 -87 -90 0
86 87 -90 0
-86 87 90 0
-88 -89 90 0
88 -89 -90 0
-88 89 -90 0
88 89 90 0
-1 2 91 0
1 2 -91 0
-1 -2 -91 0
1 -2 91 0
-3 -8 92 0
3 -8 -92 0
-3 8 -92 0
3 8 92 0
11 -13 93 0
-11 -13 -93 0
11 13 -93 0
-11 13 93 0
15 16 94 0
-15 16 -94 0
15 -16 -94 0
-15 -16 94 0
-17 18 95 0
17 18 -95 0
-17 -18 -95 0
17 -18 95 0
24 -27 96 0
-24 -27 -96 0
24 27 -96 0
-24 27 96 0
-30 34 97 0
30 34 -97 0
-30 -34 -97 0
30 -34 97 0
35 -36 98 0
-35 -36 -98 0
35 36 -98 0
-35 36 98 0
38 39 99 0
-38 39 -99 0
38 -39 -99 0
-38 -39 99 0
-40 -41 100 0
40 -41 -100 0
-40 41 -100 0
40 41 100 0
-43 -45 101 0
43 -45 -101 0
-43 45 -101 0
43 45 101 0
48 49 102 0
-48 49 -102 0
48 -49 -102 0
-48 -49 102 0
90 -91 103 0
-90 -91 -103 0
90 91 -103 0
-90 91 103 0
92 -93 104 0
-92 -93 -104 0
92 93 -104 0
-92 93 104 0
94 -95 105 0
-94 -95 -105 0
94 95 -105 0
-94 95 105 0
96 -97 106 0
-96 -97 -106 0
96 97 -106 0
-96 97 106 0
98 -99 107 0
-98 -99 -107 0
98 99 -107 0
-98 99 107 0
100 -101 108 0
-100 -101 -108 0
100 101 -108 0
-100 101 108 0
102 -103 109 0
-102 -103 -109 0
102 103 -109 0
-102 103 109 0
104 -105 110 0
-104 -105 -110 0
104 105 -110 0
-104 105 110 0
106 -107 111 0
-106 -107 -111 0
106 107 -111 0
-106 107 111 0
108 -109 112 0
-108 -109 -112 0
108 109 -112 0
-108 109 112 0
110 -111 113 0
-110 -111 -113 0
110 111 -113 0
-110 111 113 0
112 113 0
-112 -113 0
2 5 114 0
-2 5 -114 0
2 -5 -114 0
-2 -5 114 0
6 8 115 0
-6 8 -115 0
6 -8 -115 0
-6 -8 115 0
11 -12 116 0
-11 -12 -116 0
11 12 -116 0
-11 12 116 0
13 -14 117 0
-13 -14 -117 0
13 14 -117 0
-13 14 117 0
-15 16 118 0
15 16 -118 0
-15 -16 -118 0
15 -16 118 0
-17 -19 119 0
17 -19 -119 0
-17 19 -119 0
17 19 119 0
-20 24 120 0
20 24 -120 0
-20 -24 -120 0
20 -24 120 0
25 26 121 0
-25 26 -121 0
25 -26 -121 0
-25 -26 121 0
-27 28 122 0
27 28 -122 0
-27 -28 -122 0
27 -28 122 0
-33 -34 123 0
33 -34 -123 0
-33 34 -123 0
33 34 123 0
35 -36 124 0
-35 -36 -124 0
35 36 -124 0
-35 36 124 0
37 38 125 0
-37 38 -125 0
37 -38 -125 0
-37 -38 125 0
39 -42 126 0
-39 -42 -126 0
39 42 -126 0
-39 42 126 0
-44 45 127 0
44 45 -127 0
-44 -45 -127 0
44 -45 127 0
46 47 128 0
-46 47 -128 0
46 -47 -128 0
-46 -47 128 0
113 -114 129 0
-113 -114 -129 0
113 114 -129 0
-113 114 129 0
115 -116 130 0
-115 -116 -130 0
115 116 -130 0
-115 116 130 0
117 -118 131 0
-117 -118 -131 0
117 118 -131 0
-117 118 131 0
119 -120 132 0
-119 -120 -132 0
119 120 -132 0
-119 120 132 0
121 -122 133 0
-121 -122 -133 0
121 122 -133 0
-121 122 133 0
123 -124 134 0
-123 -124 -134 0
123 124 -134 0
-123 124 134 0
125 -126 135 0
-125 -126 -135 0
125 126 -135 0
-125 126 135 0
127 -128 136 0
-127 -128 -136 0
127 128 -136 0
-127 128 136 0
129 -130 137 0
-129 -130 -137 0
129 130 -137 0
-129 130 137 0
131 -132 138 0
-131 -132 -138 0
131 132 -138 0
-131 132 138 0
133 -134 139 0
-133 -134 -139 0
133 134 -139 0
-133 134 139 0
135 -136 140 0
-135 -136 -140 0
135 136 -140 0
-135 136 140 0
137 -138 141 0
-137 -138 -141 0
137 138 -141 0
-137 138 141 0
139 -140 142 0
-139 -140 -142 0
139 140 -142 0
-139 140 142 0
141 142 0
-141 -142 0
-1 3 143 0
1 3 -143 0
-1 -3 -143 0
1 -3 143 0
-6 8 144 0
6 8 -144 0
-6 -8 -144 0
6 -8 144 0
13 -17 145 0
-13 -17 -145 0
13 17 -145 0
-13 17 145 0
18 20 146 0
-18 20 -146 0
18 -20 -146 0
-18 -20 146 0
21 22 147 0
-21 22 -147 0
21 -22 -147 0
-21 -22 147 0
-24 -26 148 0
24 -26 -148 0
-24 26 -148 0
24 26 148 0
-28 29 149 0
28 29 -149 0
-28 -29 -149 0
28 -29 149 0
31 -34 150 0
-31 -34 -150 0
31 34 -150 0
-31 34 150 0
-35 36 151 0
35 36 -151 0
-35 -36 -151 0
35 -36 151 0
40 -44 152 0
-40 -44 -152 0
40 44 -152 0
-40 44 152 0
46 47 153 0
-46 47 -153 0
46 -47 -153 0
-46 -47 153 0
48 -49 154 0
-48 -49 -154 0
48 49 -154 0
-48 49 154 0
143 -144 155 0
-143 -144 -155 0
143 144 -155 0
-143 144 155 0
145 -146 156 0
-145 -146 -156 0
145 146 -156 0
-145 146 156 0
147 -148 157 0
-147 -148 -157 0
147 148 -157 0
-147 148 157 0
149 -150 158 0
-149 -150 -158 0
149 150 -158 0
-149 150 158 0
151 -152 159 0
-151 -152 -159 0
151 152 -159 0
-151 152 159 0
153 -154 160 0
-153 -154 -160 0
153 154 -160 0
-153 154 160 0
155 -156 161 0
-155 -156 -161 0
155 156 -161 0
-155 156 161 0
157 -158 162 0
-157 -158 -162 0
157 158 -162 0
-157 158 162 0
159 -160 163 0
-159 -160 -163 0
159 160 -163 0
-159 160 163 0
-161 -162 163 0
161 -162 -163 0
-161 162 -163 0
161 162 163 0
6 7 164 0
-6 7 -164 0
6 -7 -164 0
-6 -7 164 0
-8 -14 165 0
8 -14 -165 0
-8 14 -165 0
8 14 165 0
-15 16 166 0
15 16 -166 0
-15 -16 -166 0
15 -16 166 0
17 -20 167 0
-17 -20 -167 0
17 20 -167 0
-17 20 167 0
22 24 168 0
-22 24 -168 0
22 -24 -168 0
-22 -24 168 0
-25 -27 169 0
25 -27 -169 0
-25 27 -169 0
25 27 169 0
28 -33 170 0
-28 -33 -170 0
28 33 -170 0
-28 33 170 0
-35 37 171 0
35 37 -171 0
-35 -37 -171 0
35 -37 171 0
38 -39 172 0
-38 -39 -172 0
38 39 -172 0
-38 39 172 0
-40 -43 173 0
40 -43 -173 0
-40 43 -173 0
40 43 173 0
44 47 174 0
-44 47 -174 0
44 -47 -174 0
-44 -47 174 0
-48 -49 175 0
48 -49 -175 0
-48 49 -175 0
48 49 175 0
163 -164 176 0
-163 -164 -176 0
163 164 -176 0
-163 164 176 0
165 -166 177 0
-165 -166 -177 0
165 166 -177 0
-165 166 177 0
167 -168 178 0
-167 -168 -178 0
167 168 -178 0
-167 168 178 0
169 -170 179 0
-169 -170 -179 0
169 170 -179 0
-169 170 179 0
171 -172 180 0
-171 -172 -180 0
171 172 -180 0
-171 172 180 0
173 -174 181 0
-173 -174 -181 0
173 174 -181 0
-173 174 181 0
175 -176 182 0
-175 -176 -182 0
175 176 -182 0
-175 176 182 0
177 -178 183 0
-177 -178 -183 0
177 178 -183 0
-177 178 183 0
179 -180 184 0
-179 -180 -184 0
179 180 -184 0
-179 180 184 0
181 -182 185 0
-181 -182 -185 0
181 182 -185 0
-181 182 185 0
183 -184 186 0
-183 -184 -186 0
183 184 -186 0
-183 184 186 0
185 186 0
-185 -186 0
-1 2 187 0
1 2 -187 0
-1 -2 -187 0
1 -2 187 0
3 5 188 0
-3 5 -188 0
3 -5 -188 0
-3 -5 188 0
-6 9 189 0
6 9 -189 0
-6 -9 -189 0
6 -9 189 0
11 12 190 0
-11 12 -190 0
11 -12 -190 0
-11 -12 190 0
-15 16 191 0
15 16 -191 0
-15 -16 -191 0
15 -16 191 0
19 -20 192 0
-19 -20 -192 0
19 20 -192 0
-19 20 192 0
-22 -24 193 0
22 -24 -193 0
-22 24 -193 0
22 24 193 0
-25 27 194 0
25 27 -194 0
-25 -27 -194 0
25 -27 194 0
-29 36 195 0
29 36 -195 0
-29 -36 -195 0
29 -36 195 0
39 42 196 0
-39 42 -196 0
39 -42 -196 0
-39 -42 196 0
46 -47 197 0
-46 -47 -197 0
46 47 -197 0
-46 47 197 0
186 -187 198 0
-186 -187 -198 0
186 187 -198 0
-186 187 198 0
188 -189 199 0
-188 -189 -199 0
188 189 -199 0
-188 189 199 0
190 -191 200 0
-190 -191 -200 0
190 191 -200 0
-190 191 200 0
192 -193 201 0
-192 -193 -201 0
192 193 -201 0
-192 193 201 0
194 -195 202 0
-194 -195 -202 0
194 195 -202 0
-194 195 202 0
196 -197 203 0
-196 -197 -203 0
196 197 -203 0
-196 197 203 0
198 -199 204 0
-198 -199 -204 0
198 199 -204 0
-198 199 204 0
200 -201 205 0
-200 -201 -205 0
200 201 -205 0
-200 201 205 0
202 -203 206 0
-202 -203 -206 0
202 203 -206 0
-202 203 206 0
-204 -205 206 0
204 -205 -206 0
-204 205 -206 0
204 205 206 0
-3 4 207 0
3 4 -207 0
-3 -4 -207 0
3 -4 207 0
6 7 208 0
-6 7 -208 0
6 -7 -208 0
-6 -7 208 0
-9 11 209 0
9 11 -209 0
-9 -11 -209 0
9 -11 209 0
15 16 210 0
-15 16 -210 0
15 -16 -210 0
-15 -16 210 0
18 -19 211 0
-18 -19 -211 0
18 19 -211 0
-18 19 211 0
21 -23 212 0
-21 -23 -212 0
21 23 -212 0
-21 23 212 0
-24 -25 213 0
24 -25 -213 0
-24 25 -213 0
24 25 213 0
27 28 214 0
-27 28 -214 0
27 -28 -214 0
-27 -28 214 0
30 31 215 0
-30 31 -215 0
30 -31 -215 0
-30 -31 215 0
34 35 216 0
-34 35 -216 0
34 -35 -216 0
-34 -35 216 0
-36 37 217 0
36 37 -217 0
-36 -37 -217 0
36 -37 217 0
41 -42 218 0
-41 -42 -218 0
41 42 -218 0
-41 42 218 0
46 -48 219 0
-46 -48 -219 0
46 48 -219 0
-46 48 219 0
206 -207 220 0
-206 -207 -220 0
206 207 -220 0
-206 207 220 0
208 -209 221 0
-208 -209 -221 0
208 209 -221 0
-208 209 221 0
210 -211 222 0
-210 -211 -222 0
210 211 -222 0
-210 211 222 0
212 -213 223 0
-212 -213 -223 0
212 213 -223 0
-212 213 223 0
214 -215 224 0
-214 -215 -224 0
214 215 -224 0
-214 215 224 0
216 -217 225 0
-216 -217 -225 0
216 217 -225 0
-216 217 225 0
218 -219 226 0
-218 -219 -226 0
218 219 -226 0
-218 219 226 0
220 -221 227 0
-220 -221 -227 0
220 221 -227 0
-220 221 227 0
222 -223 228 0
-222 -223 -228 0
222 223 -228 0
-222 223 228 0
224 -225 229 0
-224 -225 -229 0
224 225 -229 0
-224 225 229 0
226 -227 230 0
-226 -227 -230 0
226 227 -230 0
-226 227 230 0
228 -229 231 0
-228 -229 -231 0
228 229 -231 0
-228 229 231 0
230 231 0
-230 -231 0
-2 -5 232 0
2 -5 -232 0
-2 5 -232 0
2 5 232 0
6 -8 233 0
-6 -8 -233 0
6 8 -233 0
-6 8 233 0
9 10 234 0
-9 10 -234 0
9 -10 -234 0
-9 -10 234 0
12 13 235 0
-12 13 -235 0
12 -13 -235 0
-12 -13 235 0
-14 15 236 0
14 15 -236 0
-14 -15 -236 0
14 -15 236 0
17 -20 237 0
-17 -20 -237 0
17 20 -237 0
-17 20 237 0
21 24 238 0
-21 24 -238 0
21 -24 -238 0
-21 -24 238 0
-25 -26 239 0
25 -26 -239 0
-25 26 -239 0
25 26 239 0
31 32 240 0
-31 32 -240 0
31 -32 -240 0
-31 -32 240 0
-33 36 241 0
33 36 -241 0
-33 -36 -241 0
33 -36 241 0
-39 40 242 0
39 40 -242 0
-39 -40 -242 0
39 -40 242 0
41 -42 243 0
-41 -42 -243 0
41 42 -243 0
-41 42 243 0
43 44 244 0
-43 44 -244 0
43 -44 -244 0
-43 -44 244 0
-46 47 245 0
46 47 -245 0
-46 -47 -245 0
46 -47 245 0
-48 -50 246 0
48 -50 -246 0
-48 50 -246 0
48 50 246 0
232 -233 247 0
-232 -233 -247 0
232 233 -247 0
-232 233 247 0
234 -235 248 0
-234 -235 -248 0
234 235 -248 0
-234 235 248 0
236 -237 249 0
-236 -237 -249 0
236 237 -249 0
-236 237 249 0
238 -239 250 0
-238 -239 -250 0
238 239 -250 0
-238 239 250 0
240 -241 251 0
-240 -241 -251 0
240 241 -251 0
-240 241 251 0
242 -243 252 0
-242 -243 -252 0
242 243 -252 0
-242 243 252 0
244 -245 253 0
-244 -245 -253 0
244 245 -253 0
-244 245 253 0
246 -247 254 0
-246 -247 -254 0
246 247 -254 0
-246 247 254 0
248 -249 255 0
-248 -249 -255 0
248 249 -255 0
-248 249 255 0
250 -251 256 0
-250 -251 -256 0
250 251 -256 0
-250 251 256 0
252 -253 257 0
-252 -253 -257 0
252 253 -257 0
-252 253 257 0
254 -255 258 0
-254 -255 -258 0
254 255 -258 0
-254 255 258 0
256 -257 259 0
-256 -257 -259 0
256 257 -259 0
-256 257 259 0
258 259 0
-258 -259 0
-2 -3 260 0
2 -3 -260 0
-2 3 -260 0
2 3 260 0
4 5 261 0
-4 5 -261 0
4 -5 -261 0
-4 -5 261 0
6 7 262 0
-6 7 -262 0
6 -7 -262 0
-6 -7 262 0
-13 19 263 0
13 19 -263 0
-13 -19 -263 0
13 -19 263 0
22 23 264 0
-22 23 -264 0
22 -23 -264 0
-22 -23 264 0
-24 25 265 0
24 25 -265 0
-24 -25 -265 0
24 -25 265 0
-26 -27 266 0
26 -27 -266 0
-26 27 -266 0
26 27 266 0
28 29 267 0
-28 29 -267 0
28 -29 -267 0
-28 -29 267 0
-31 -36 268 0
31 -36 -268 0
-31 36 -268 0
31 36 268 0
37 38 269 0
-37 38 -269 0
37 -38 -269 0
-37 -38 269 0
-39 41 270 0
39 41 -270 0
-39 -41 -270 0
39 -41 270 0
42 44 271 0
-42 44 -271 0
42 -44 -271 0
-42 -44 271 0
46 -47 272 0
-46 -47 -272 0
46 47 -272 0
-46 47 272 0
259 -260 273 0
-259 -260 -273 0
259 260 -273 0
-259 260 273 0
261 -262 274 0
-261 -262 -274 0
261 262 -274 0
-261 262 274 0
263 -264 275 0
-263 -264 -275 0
263 264 -275 0
-263 264 275 0
265 -266 276 0
-265 -266 -276 0
265 266 -276 0
-265 266 276 0
267 -268 277 0
-267 -268 -277 0
267 268 -277 0
-267 268 277 0
269 -270 278 0
-269 -270 -278 0
269 270 -278 0
-269 270 278 0
271 -272 279 0
-271 -272 -279 0
271 272 -279 0
-271 272 279 0
273 -274 280 0
-273 -274 -280 0
273 274 -280 0
-273 274 280 0
275 -276 281 0
-275 -276 -281 0
275 276 -281 0
-275 276 281 0
277 -278 282 0
-277 -278 -282 0
277 278 -282 0
-277 278 282 0
279 -280 283 0
-279 -280 -283 0
279 280 -283 0
-279 280 283 0
281 -282 284 0
-281 -282 -284 0
281 282 -284 0
-281 282 284 0
283 284 0
-283 -284 0
